p cnf 27 156
1 2 3 4 5 0
1 2 3 -4 8 0
1 2 -3 4 6 0
1 2 -3 -4 8 0
1 -2 3 4 8 0
1 -2 3 -4 8 0
1 -2 -3 4 8 0
1 -2 -3 -4 5 0
-1 2 3 4 8 0
-1 2 3 -4 7 0
-1 2 -3 4 9 0
-1 2 -3 -4 5 0
10 11 12 13 1 2 3 4 14 0
10 11 12 13 1 2 3 -4 16 0
10 11 12 13 1 2 -3 4 18 0
10 11 12 13 1 2 -3 -4 17 0
10 11 12 13 1 -2 3 4 16 0
10 11 12 13 1 -2 3 -4 16 0
10 11 12 13 1 -2 -3 4 16 0
10 11 12 13 1 -2 -3 -4 15 0
10 11 12 13 -1 2 3 4 16 0
10 11 12 13 -1 2 3 -4 15 0
10 11 12 13 -1 2 -3 4 15 0
10 11 12 13 -1 2 -3 -4 15 0
10 11 12 -13 1 2 3 4 14 0
10 11 12 -13 1 2 3 -4 17 0
10 11 12 -13 1 2 -3 4 19 0
10 11 12 -13 1 2 -3 -4 15 0
10 11 12 -13 1 -2 3 4 15 0
10 11 12 -13 1 -2 3 -4 15 0
10 11 12 -13 1 -2 -3 4 16 0
10 11 12 -13 1 -2 -3 -4 15 0
10 11 12 -13 -1 2 3 4 15 0
10 11 12 -13 -1 2 3 -4 20 0
10 11 12 -13 -1 2 -3 4 15 0
10 11 12 -13 -1 2 -3 -4 15 0
10 11 -12 13 1 2 3 4 21 0
10 11 -12 13 1 2 3 -4 15 0
10 11 -12 13 1 2 -3 4 22 0
10 11 -12 13 1 2 -3 -4 17 0
10 11 -12 13 1 -2 3 4 23 0
10 11 -12 13 1 -2 3 -4 16 0
10 11 -12 13 1 -2 -3 4 15 0
10 11 -12 13 1 -2 -3 -4 27 0
10 11 -12 13 -1 2 3 4 16 0
10 11 -12 13 -1 2 3 -4 15 0
10 11 -12 13 -1 2 -3 4 15 0
10 11 -12 13 -1 2 -3 -4 15 0
10 11 -12 -13 1 2 3 4 27 0
10 11 -12 -13 1 2 3 -4 17 0
10 11 -12 -13 1 2 -3 4 18 0
10 11 -12 -13 1 2 -3 -4 16 0
10 11 -12 -13 1 -2 3 4 15 0
10 11 -12 -13 1 -2 3 -4 15 0
10 11 -12 -13 1 -2 -3 4 15 0
10 11 -12 -13 1 -2 -3 -4 15 0
10 11 -12 -13 -1 2 3 4 15 0
10 11 -12 -13 -1 2 3 -4 24 0
10 11 -12 -13 -1 2 -3 4 25 0
10 11 -12 -13 -1 2 -3 -4 15 0
10 -11 12 13 1 2 3 4 15 0
10 -11 12 13 1 2 3 -4 16 0
10 -11 12 13 1 2 -3 4 15 0
10 -11 12 13 1 2 -3 -4 17 0
10 -11 12 13 1 -2 3 4 17 0
10 -11 12 13 1 -2 3 -4 17 0
10 -11 12 13 1 -2 -3 4 15 0
10 -11 12 13 1 -2 -3 -4 15 0
10 -11 12 13 -1 2 3 4 16 0
10 -11 12 13 -1 2 3 -4 24 0
10 -11 12 13 -1 2 -3 4 25 0
10 -11 12 13 -1 2 -3 -4 15 0
10 -11 12 -13 1 2 3 4 21 0
10 -11 12 -13 1 2 3 -4 16 0
10 -11 12 -13 1 2 -3 4 18 0
10 -11 12 -13 1 2 -3 -4 15 0
10 -11 12 -13 1 -2 3 4 17 0
10 -11 12 -13 1 -2 3 -4 15 0
10 -11 12 -13 1 -2 -3 4 16 0
10 -11 12 -13 1 -2 -3 -4 15 0
10 -11 12 -13 -1 2 3 4 15 0
10 -11 12 -13 -1 2 3 -4 24 0
10 -11 12 -13 -1 2 -3 4 25 0
10 -11 12 -13 -1 2 -3 -4 21 0
10 -11 -12 13 1 2 3 4 15 0
10 -11 -12 13 1 2 3 -4 15 0
10 -11 -12 13 1 2 -3 4 15 0
10 -11 -12 13 1 2 -3 -4 16 0
10 -11 -12 13 1 -2 3 4 15 0
10 -11 -12 13 1 -2 3 -4 16 0
10 -11 -12 13 1 -2 -3 4 16 0
10 -11 -12 13 1 -2 -3 -4 27 0
10 -11 -12 13 -1 2 3 4 15 0
10 -11 -12 13 -1 2 3 -4 24 0
10 -11 -12 13 -1 2 -3 4 15 0
10 -11 -12 13 -1 2 -3 -4 14 0
10 -11 -12 -13 1 2 3 4 15 0
10 -11 -12 -13 1 2 3 -4 16 0
10 -11 -12 -13 1 2 -3 4 22 0
10 -11 -12 -13 1 2 -3 -4 16 0
10 -11 -12 -13 1 -2 3 4 16 0
10 -11 -12 -13 1 -2 3 -4 15 0
10 -11 -12 -13 1 -2 -3 4 16 0
10 -11 -12 -13 1 -2 -3 -4 21 0
10 -11 -12 -13 -1 2 3 4 17 0
10 -11 -12 -13 -1 2 3 -4 15 0
10 -11 -12 -13 -1 2 -3 4 15 0
10 -11 -12 -13 -1 2 -3 -4 27 0
-10 11 12 13 1 2 3 4 15 0
-10 11 12 13 1 2 3 -4 17 0
-10 11 12 13 1 2 -3 4 15 0
-10 11 12 13 1 2 -3 -4 15 0
-10 11 12 13 1 -2 3 4 15 0
-10 11 12 13 1 -2 3 -4 26 0
-10 11 12 13 1 -2 -3 4 16 0
-10 11 12 13 1 -2 -3 -4 15 0
-10 11 12 13 -1 2 3 4 15 0
-10 11 12 13 -1 2 3 -4 15 0
-10 11 12 13 -1 2 -3 4 15 0
-10 11 12 13 -1 2 -3 -4 14 0
-10 11 12 -13 1 2 3 4 15 0
-10 11 12 -13 1 2 3 -4 15 0
-10 11 12 -13 1 2 -3 4 18 0
-10 11 12 -13 1 2 -3 -4 16 0
-10 11 12 -13 1 -2 3 4 16 0
-10 11 12 -13 1 -2 3 -4 15 0
-10 11 12 -13 1 -2 -3 4 17 0
-10 11 12 -13 1 -2 -3 -4 21 0
-10 11 12 -13 -1 2 3 4 17 0
-10 11 12 -13 -1 2 3 -4 20 0
-10 11 12 -13 -1 2 -3 4 25 0
-10 11 12 -13 -1 2 -3 -4 21 0
-10 11 -12 13 1 2 3 4 15 0
-10 11 -12 13 1 2 3 -4 15 0
-10 11 -12 13 1 2 -3 4 18 0
-10 11 -12 13 1 2 -3 -4 15 0
-10 11 -12 13 1 -2 3 4 15 0
-10 11 -12 13 1 -2 3 -4 16 0
-10 11 -12 13 1 -2 -3 4 16 0
-10 11 -12 13 1 -2 -3 -4 14 0
-10 11 -12 13 -1 2 3 4 15 0
-10 11 -12 13 -1 2 3 -4 24 0
-10 11 -12 13 -1 2 -3 4 19 0
-10 11 -12 13 -1 2 -3 -4 21 0
-10 11 -12 -13 1 2 3 4 21 0
-10 11 -12 -13 1 2 3 -4 15 0
-10 11 -12 -13 1 2 -3 4 15 0
-10 11 -12 -13 1 2 -3 -4 15 0
-10 11 -12 -13 1 -2 3 4 15 0
-10 11 -12 -13 1 -2 3 -4 15 0
-10 11 -12 -13 1 -2 -3 4 16 0
-10 11 -12 -13 1 -2 -3 -4 27 0
-10 11 -12 -13 -1 2 3 4 23 0
-10 11 -12 -13 -1 2 3 -4 20 0
-10 11 -12 -13 -1 2 -3 4 19 0
-10 11 -12 -13 -1 2 -3 -4 15 0
